coords = array2d(1..56, 1..2, [893, 900, 729, 436, 774, 574, 260, 648, 593,
    499, 945, 677, 691, 957, 306, 202, 20, 18, 786, 668, 532, 584,
    331, 219, 579, 255, 618, 43, 335, 437, 935, 681, 322, 99, 209,
    147, 872, 729, 892, 726, 575, 559, 230, 36, 628, 331, 850, 657,
    342, 52, 141, 122, 74, 825, 147, 81, 917, 312, 473, 5, 294, 606,
    825, 467, 636, 105, 494, 944, 568, 802, 99, 991, 710, 28, 631,
    402, 372, 427, 44, 57, 839, 543, 401, 250, 958, 826, 558, 277,
    754, 316, 648, 357, 450, 473, 784, 252, 320, 124, 862, 244, 373,
    813, 427, 139, 741, 418, 141, 870, 828, 105, 483, 258]);

n = 56;

